single_objective/SL-DABL/OP/problems/op/OPLib-master/solutions/ea4op/gen3/p654-gen3-50.sol
NAME : p654
TYPE : OP
DIMENSION : 654
COST_LIMIT : 17322
ROUTE_NODES : 282
ROUTE_SCORE : 24130
ROUTE_COST : 17318
NODE_SEQUENCE_SECTION
1
52
51
49
48
45
44
46
588
589
590
609
591
592
593
594
595
611
596
612
597
613
598
599
600
614
601
602
395
396
400
399
403
407
411
415
419
423
427
431
435
439
443
447
451
455
459
463
467
471
475
479
483
487
488
489
490
486
482
478
474
470
466
462
458
454
453
457
461
465
469
473
477
481
485
484
480
476
472
468
464
460
456
452
448
444
440
441
445
449
450
446
442
438
437
436
432
433
434
430
429
428
424
420
416
417
421
425
426
422
418
414
410
409
413
412
408
404
405
406
402
401
397
398
654
630
629
653
628
652
627
651
650
649
648
647
646
626
610
625
645
644
624
623
643
392
391
387
388
389
393
394
390
386
385
384
383
379
380
381
382
378
377
376
375
371
372
373
374
370
366
362
361
365
369
368
367
363
364
360
359
355
351
347
348
349
353
352
356
357
358
354
350
346
345
344
343
339
340
341
342
338
337
334
333
332
336
335
331
327
323
324
328
329
330
326
325
321
322
318
317
313
314
310
309
308
312
316
320
319
315
311
307
303
299
300
304
305
306
302
301
642
587
586
622
608
621
641
585
584
620
640
639
619
583
607
582
638
637
606
581
605
580
636
635
634
618
604
579
578
577
576
617
633
632
631
615
616
603
575
574
573
-1
DEPOT_SECTION
1
-1
EOF
